NAME           C:\Bruker\Hvattum\knapsack\Problems\class1\100-5-06.mps
ROWS
 N  OBJ
 L  CONSTR1
 L  CONSTR2
 L  CONSTR3
 L  CONSTR4
 L  CONSTR5
COLUMNS
    INT0001   'MARKER'  'INTORG'
    X1        OBJ       879
    X1        CONSTR1   859
    X1        CONSTR2   384
    X1        CONSTR3   283
    X1        CONSTR4   372
    X1        CONSTR5   782
    X2        OBJ       686
    X2        CONSTR1   636
    X2        CONSTR2   18
    X2        CONSTR3   707
    X2        CONSTR4   329
    X2        CONSTR5   288
    X3        OBJ       547
    X3        CONSTR1   338
    X3        CONSTR2   54
    X3        CONSTR3   130
    X3        CONSTR4   187
    X3        CONSTR5   346
    X4        OBJ       407
    X4        CONSTR1   240
    X4        CONSTR2   579
    X4        CONSTR3   257
    X4        CONSTR4   377
    X4        CONSTR5   204
    X5        OBJ       623
    X5        CONSTR1   511
    X5        CONSTR2   393
    X5        CONSTR3   787
    X5        CONSTR4   495
    X5        CONSTR5   129
    X6        OBJ       884
    X6        CONSTR1   87
    X6        CONSTR2   459
    X6        CONSTR3   831
    X6        CONSTR4   381
    X6        CONSTR5   229
    X7        OBJ       882
    X7        CONSTR1   829
    X7        CONSTR2   952
    X7        CONSTR3   113
    X7        CONSTR4   664
    X7        CONSTR5   44
    X8        OBJ       679
    X8        CONSTR1   70
    X8        CONSTR2   272
    X8        CONSTR3   265
    X8        CONSTR4   986
    X8        CONSTR5   342
    X9        OBJ       814
    X9        CONSTR1   593
    X9        CONSTR2   939
    X9        CONSTR3   199
    X9        CONSTR4   489
    X9        CONSTR5   424
    X10       OBJ       673
    X10       CONSTR1   711
    X10       CONSTR2   603
    X10       CONSTR3   450
    X10       CONSTR4   507
    X10       CONSTR5   471
    X11       OBJ       1156
    X11       CONSTR1   681
    X11       CONSTR2   489
    X11       CONSTR3   775
    X11       CONSTR4   935
    X11       CONSTR5   649
    X12       OBJ       654
    X12       CONSTR1   293
    X12       CONSTR2   867
    X12       CONSTR3   253
    X12       CONSTR4   940
    X12       CONSTR5   897
    X13       OBJ       606
    X13       CONSTR1   620
    X13       CONSTR2   592
    X13       CONSTR3   856
    X13       CONSTR4   297
    X13       CONSTR5   77
    X14       OBJ       940
    X14       CONSTR1   646
    X14       CONSTR2   489
    X14       CONSTR3   61
    X14       CONSTR4   921
    X14       CONSTR5   716
    X15       OBJ       490
    X15       CONSTR1   644
    X15       CONSTR2   312
    X15       CONSTR3   395
    X15       CONSTR4   27
    X15       CONSTR5   16
    X16       OBJ       733
    X16       CONSTR1   327
    X16       CONSTR2   557
    X16       CONSTR3   825
    X16       CONSTR4   875
    X16       CONSTR5   467
    X17       OBJ       910
    X17       CONSTR1   537
    X17       CONSTR2   374
    X17       CONSTR3   768
    X17       CONSTR4   360
    X17       CONSTR5   199
    X18       OBJ       1164
    X18       CONSTR1   369
    X18       CONSTR2   860
    X18       CONSTR3   819
    X18       CONSTR4   588
    X18       CONSTR5   876
    X19       OBJ       483
    X19       CONSTR1   650
    X19       CONSTR2   95
    X19       CONSTR3   717
    X19       CONSTR4   385
    X19       CONSTR5   42
    X20       OBJ       989
    X20       CONSTR1   369
    X20       CONSTR2   829
    X20       CONSTR3   953
    X20       CONSTR4   86
    X20       CONSTR5   737
    X21       OBJ       934
    X21       CONSTR1   506
    X21       CONSTR2   262
    X21       CONSTR3   512
    X21       CONSTR4   474
    X21       CONSTR5   792
    X22       OBJ       641
    X22       CONSTR1   598
    X22       CONSTR2   292
    X22       CONSTR3   182
    X22       CONSTR4   416
    X22       CONSTR5   768
    X23       OBJ       1148
    X23       CONSTR1   139
    X23       CONSTR2   878
    X23       CONSTR3   719
    X23       CONSTR4   662
    X23       CONSTR5   872
    X24       OBJ       1024
    X24       CONSTR1   322
    X24       CONSTR2   504
    X24       CONSTR3   655
    X24       CONSTR4   960
    X24       CONSTR5   393
    X25       OBJ       1136
    X25       CONSTR1   833
    X25       CONSTR2   692
    X25       CONSTR3   969
    X25       CONSTR4   911
    X25       CONSTR5   455
    X26       OBJ       856
    X26       CONSTR1   812
    X26       CONSTR2   738
    X26       CONSTR3   650
    X26       CONSTR4   149
    X26       CONSTR5   497
    X27       OBJ       702
    X27       CONSTR1   414
    X27       CONSTR2   276
    X27       CONSTR3   895
    X27       CONSTR4   283
    X27       CONSTR5   382
    X28       OBJ       484
    X28       CONSTR1   131
    X28       CONSTR2   734
    X28       CONSTR3   415
    X28       CONSTR4   690
    X28       CONSTR5   172
    X29       OBJ       1001
    X29       CONSTR1   846
    X29       CONSTR2   340
    X29       CONSTR3   754
    X29       CONSTR4   542
    X29       CONSTR5   550
    X30       OBJ       749
    X30       CONSTR1   224
    X30       CONSTR2   576
    X30       CONSTR3   394
    X30       CONSTR4   834
    X30       CONSTR5   104
    X31       OBJ       881
    X31       CONSTR1   440
    X31       CONSTR2   238
    X31       CONSTR3   626
    X31       CONSTR4   185
    X31       CONSTR5   505
    X32       OBJ       861
    X32       CONSTR1   258
    X32       CONSTR2   950
    X32       CONSTR3   382
    X32       CONSTR4   86
    X32       CONSTR5   686
    X33       OBJ       967
    X33       CONSTR1   179
    X33       CONSTR2   536
    X33       CONSTR3   750
    X33       CONSTR4   76
    X33       CONSTR5   836
    X34       OBJ       1033
    X34       CONSTR1   380
    X34       CONSTR2   824
    X34       CONSTR3   110
    X34       CONSTR4   974
    X34       CONSTR5   441
    X35       OBJ       928
    X35       CONSTR1   698
    X35       CONSTR2   550
    X35       CONSTR3   104
    X35       CONSTR4   420
    X35       CONSTR5   578
    X36       OBJ       582
    X36       CONSTR1   103
    X36       CONSTR2   407
    X36       CONSTR3   638
    X36       CONSTR4   644
    X36       CONSTR5   582
    X37       OBJ       656
    X37       CONSTR1   720
    X37       CONSTR2   849
    X37       CONSTR3   203
    X37       CONSTR4   503
    X37       CONSTR5   440
    X38       OBJ       971
    X38       CONSTR1   717
    X38       CONSTR2   541
    X38       CONSTR3   306
    X38       CONSTR4   570
    X38       CONSTR5   998
    X39       OBJ       607
    X39       CONSTR1   62
    X39       CONSTR2   82
    X39       CONSTR3   289
    X39       CONSTR4   594
    X39       CONSTR5   599
    X40       OBJ       372
    X40       CONSTR1   235
    X40       CONSTR2   117
    X40       CONSTR3   444
    X40       CONSTR4   403
    X40       CONSTR5   323
    X41       OBJ       685
    X41       CONSTR1   773
    X41       CONSTR2   11
    X41       CONSTR3   115
    X41       CONSTR4   62
    X41       CONSTR5   794
    X42       OBJ       553
    X42       CONSTR1   64
    X42       CONSTR2   4
    X42       CONSTR3   877
    X42       CONSTR4   680
    X42       CONSTR5   164
    X43       OBJ       714
    X43       CONSTR1   735
    X43       CONSTR2   425
    X43       CONSTR3   915
    X43       CONSTR4   120
    X43       CONSTR5   422
    X44       OBJ       866
    X44       CONSTR1   803
    X44       CONSTR2   901
    X44       CONSTR3   76
    X44       CONSTR4   966
    X44       CONSTR5   917
    X45       OBJ       936
    X45       CONSTR1   595
    X45       CONSTR2   590
    X45       CONSTR3   58
    X45       CONSTR4   284
    X45       CONSTR5   689
    X46       OBJ       1160
    X46       CONSTR1   308
    X46       CONSTR2   905
    X46       CONSTR3   870
    X46       CONSTR4   690
    X46       CONSTR5   672
    X47       OBJ       600
    X47       CONSTR1   499
    X47       CONSTR2   206
    X47       CONSTR3   552
    X47       CONSTR4   16
    X47       CONSTR5   97
    X48       OBJ       661
    X48       CONSTR1   672
    X48       CONSTR2   210
    X48       CONSTR3   969
    X48       CONSTR4   4
    X48       CONSTR5   703
    X49       OBJ       759
    X49       CONSTR1   713
    X49       CONSTR2   181
    X49       CONSTR3   28
    X49       CONSTR4   208
    X49       CONSTR5   876
    X50       OBJ       823
    X50       CONSTR1   78
    X50       CONSTR2   704
    X50       CONSTR3   686
    X50       CONSTR4   570
    X50       CONSTR5   544
    X51       OBJ       688
    X51       CONSTR1   570
    X51       CONSTR2   218
    X51       CONSTR3   514
    X51       CONSTR4   716
    X51       CONSTR5   864
    X52       OBJ       951
    X52       CONSTR1   636
    X52       CONSTR2   139
    X52       CONSTR3   878
    X52       CONSTR4   974
    X52       CONSTR5   398
    X53       OBJ       634
    X53       CONSTR1   968
    X53       CONSTR2   137
    X53       CONSTR3   571
    X53       CONSTR4   166
    X53       CONSTR5   41
    X54       OBJ       858
    X54       CONSTR1   47
    X54       CONSTR2   298
    X54       CONSTR3   766
    X54       CONSTR4   757
    X54       CONSTR5   353
    X55       OBJ       992
    X55       CONSTR1   795
    X55       CONSTR2   107
    X55       CONSTR3   630
    X55       CONSTR4   442
    X55       CONSTR5   809
    X56       OBJ       789
    X56       CONSTR1   589
    X56       CONSTR2   578
    X56       CONSTR3   410
    X56       CONSTR4   550
    X56       CONSTR5   26
    X57       OBJ       807
    X57       CONSTR1   125
    X57       CONSTR2   12
    X57       CONSTR3   307
    X57       CONSTR4   835
    X57       CONSTR5   279
    X58       OBJ       922
    X58       CONSTR1   317
    X58       CONSTR2   900
    X58       CONSTR3   783
    X58       CONSTR4   302
    X58       CONSTR5   844
    X59       OBJ       838
    X59       CONSTR1   195
    X59       CONSTR2   974
    X59       CONSTR3   345
    X59       CONSTR4   621
    X59       CONSTR5   24
    X60       OBJ       662
    X60       CONSTR1   761
    X60       CONSTR2   85
    X60       CONSTR3   592
    X60       CONSTR4   500
    X60       CONSTR5   726
    X61       OBJ       682
    X61       CONSTR1   314
    X61       CONSTR2   413
    X61       CONSTR3   743
    X61       CONSTR4   354
    X61       CONSTR5   892
    X62       OBJ       790
    X62       CONSTR1   108
    X62       CONSTR2   942
    X62       CONSTR3   307
    X62       CONSTR4   580
    X62       CONSTR5   919
    X63       OBJ       360
    X63       CONSTR1   13
    X63       CONSTR2   870
    X63       CONSTR3   485
    X63       CONSTR4   207
    X63       CONSTR5   158
    X64       OBJ       521
    X64       CONSTR1   141
    X64       CONSTR2   962
    X64       CONSTR3   75
    X64       CONSTR4   632
    X64       CONSTR5   577
    X65       OBJ       850
    X65       CONSTR1   531
    X65       CONSTR2   518
    X65       CONSTR3   504
    X65       CONSTR4   138
    X65       CONSTR5   174
    X66       OBJ       787
    X66       CONSTR1   667
    X66       CONSTR2   625
    X66       CONSTR3   47
    X66       CONSTR4   83
    X66       CONSTR5   901
    X67       OBJ       903
    X67       CONSTR1   984
    X67       CONSTR2   930
    X67       CONSTR3   450
    X67       CONSTR4   680
    X67       CONSTR5   739
    X68       OBJ       571
    X68       CONSTR1   557
    X68       CONSTR2   660
    X68       CONSTR3   537
    X68       CONSTR4   879
    X68       CONSTR5   59
    X69       OBJ       739
    X69       CONSTR1   1000
    X69       CONSTR2   951
    X69       CONSTR3   600
    X69       CONSTR4   60
    X69       CONSTR5   402
    X70       OBJ       905
    X70       CONSTR1   934
    X70       CONSTR2   781
    X70       CONSTR3   629
    X70       CONSTR4   851
    X70       CONSTR5   925
    X71       OBJ       946
    X71       CONSTR1   843
    X71       CONSTR2   424
    X71       CONSTR3   341
    X71       CONSTR4   301
    X71       CONSTR5   364
    X72       OBJ       669
    X72       CONSTR1   706
    X72       CONSTR2   393
    X72       CONSTR3   254
    X72       CONSTR4   822
    X72       CONSTR5   223
    X73       OBJ       981
    X73       CONSTR1   552
    X73       CONSTR2   664
    X73       CONSTR3   970
    X73       CONSTR4   78
    X73       CONSTR5   838
    X74       OBJ       747
    X74       CONSTR1   967
    X74       CONSTR2   397
    X74       CONSTR3   251
    X74       CONSTR4   219
    X74       CONSTR5   131
    X75       OBJ       950
    X75       CONSTR1   545
    X75       CONSTR2   636
    X75       CONSTR3   385
    X75       CONSTR4   977
    X75       CONSTR5   850
    X76       OBJ       614
    X76       CONSTR1   839
    X76       CONSTR2   263
    X76       CONSTR3   149
    X76       CONSTR4   199
    X76       CONSTR5   331
    X77       OBJ       786
    X77       CONSTR1   496
    X77       CONSTR2   744
    X77       CONSTR3   240
    X77       CONSTR4   177
    X77       CONSTR5   815
    X78       OBJ       881
    X78       CONSTR1   723
    X78       CONSTR2   964
    X78       CONSTR3   941
    X78       CONSTR4   931
    X78       CONSTR5   521
    X79       OBJ       854
    X79       CONSTR1   117
    X79       CONSTR2   381
    X79       CONSTR3   863
    X79       CONSTR4   429
    X79       CONSTR5   64
    X80       OBJ       883
    X80       CONSTR1   770
    X80       CONSTR2   10
    X80       CONSTR3   639
    X80       CONSTR4   686
    X80       CONSTR5   960
    X81       OBJ       581
    X81       CONSTR1   390
    X81       CONSTR2   481
    X81       CONSTR3   249
    X81       CONSTR4   81
    X81       CONSTR5   857
    X82       OBJ       488
    X82       CONSTR1   966
    X82       CONSTR2   163
    X82       CONSTR3   531
    X82       CONSTR4   204
    X82       CONSTR5   59
    X83       OBJ       1014
    X83       CONSTR1   428
    X83       CONSTR2   758
    X83       CONSTR3   671
    X83       CONSTR4   839
    X83       CONSTR5   787
    X84       OBJ       1072
    X84       CONSTR1   595
    X84       CONSTR2   559
    X84       CONSTR3   700
    X84       CONSTR4   866
    X84       CONSTR5   801
    X85       OBJ       567
    X85       CONSTR1   641
    X85       CONSTR2   392
    X85       CONSTR3   145
    X85       CONSTR4   98
    X85       CONSTR5   306
    X86       OBJ       586
    X86       CONSTR1   150
    X86       CONSTR2   626
    X86       CONSTR3   218
    X86       CONSTR4   601
    X86       CONSTR5   357
    X87       OBJ       557
    X87       CONSTR1   452
    X87       CONSTR2   32
    X87       CONSTR3   484
    X87       CONSTR4   283
    X87       CONSTR5   775
    X88       OBJ       600
    X88       CONSTR1   278
    X88       CONSTR2   701
    X88       CONSTR3   186
    X88       CONSTR4   644
    X88       CONSTR5   990
    X89       OBJ       1027
    X89       CONSTR1   804
    X89       CONSTR2   845
    X89       CONSTR3   718
    X89       CONSTR4   581
    X89       CONSTR5   694
    X90       OBJ       851
    X90       CONSTR1   560
    X90       CONSTR2   834
    X90       CONSTR3   148
    X90       CONSTR4   226
    X90       CONSTR5   133
    X91       OBJ       530
    X91       CONSTR1   176
    X91       CONSTR2   551
    X91       CONSTR3   521
    X91       CONSTR4   604
    X91       CONSTR5   269
    X92       OBJ       961
    X92       CONSTR1   776
    X92       CONSTR2   968
    X92       CONSTR3   680
    X92       CONSTR4   129
    X92       CONSTR5   885
    X93       OBJ       758
    X93       CONSTR1   966
    X93       CONSTR2   983
    X93       CONSTR3   571
    X93       CONSTR4   278
    X93       CONSTR5   576
    X94       OBJ       346
    X94       CONSTR1   357
    X94       CONSTR2   572
    X94       CONSTR3   335
    X94       CONSTR4   187
    X94       CONSTR5   7
    X95       OBJ       626
    X95       CONSTR1   953
    X95       CONSTR2   756
    X95       CONSTR3   390
    X95       CONSTR4   97
    X95       CONSTR5   246
    X96       OBJ       682
    X96       CONSTR1   563
    X96       CONSTR2   173
    X96       CONSTR3   105
    X96       CONSTR4   952
    X96       CONSTR5   613
    X97       OBJ       546
    X97       CONSTR1   395
    X97       CONSTR2   636
    X97       CONSTR3   15
    X97       CONSTR4   453
    X97       CONSTR5   765
    X98       OBJ       879
    X98       CONSTR1   857
    X98       CONSTR2   804
    X98       CONSTR3   606
    X98       CONSTR4   289
    X98       CONSTR5   757
    X99       OBJ       832
    X99       CONSTR1   292
    X99       CONSTR2   772
    X99       CONSTR3   559
    X99       CONSTR4   511
    X99       CONSTR5   398
    X100      OBJ       708
    X100      CONSTR1   378
    X100      CONSTR2   268
    X100      CONSTR3   561
    X100      CONSTR4   826
    X100      CONSTR5   579
    INT0001   'MARKER'  'INTEND'
RHS
    RHS10001  CONSTR1   12914
    RHS10001  CONSTR2   13123
    RHS10001  CONSTR3   12297
    RHS10001  CONSTR4   12018
    RHS10001  CONSTR5   12712
BOUNDS
 BV BND       X1        .00
 BV BND       X2        .00
 BV BND       X3        .00
 BV BND       X4        .00
 BV BND       X5        .00
 BV BND       X6        .00
 BV BND       X7        .00
 BV BND       X8        .00
 BV BND       X9        .00
 BV BND       X10       .00
 BV BND       X11       .00
 BV BND       X12       .00
 BV BND       X13       .00
 BV BND       X14       .00
 BV BND       X15       .00
 BV BND       X16       .00
 BV BND       X17       .00
 BV BND       X18       .00
 BV BND       X19       .00
 BV BND       X20       .00
 BV BND       X21       .00
 BV BND       X22       .00
 BV BND       X23       .00
 BV BND       X24       .00
 BV BND       X25       .00
 BV BND       X26       .00
 BV BND       X27       .00
 BV BND       X28       .00
 BV BND       X29       .00
 BV BND       X30       .00
 BV BND       X31       .00
 BV BND       X32       .00
 BV BND       X33       .00
 BV BND       X34       .00
 BV BND       X35       .00
 BV BND       X36       .00
 BV BND       X37       .00
 BV BND       X38       .00
 BV BND       X39       .00
 BV BND       X40       .00
 BV BND       X41       .00
 BV BND       X42       .00
 BV BND       X43       .00
 BV BND       X44       .00
 BV BND       X45       .00
 BV BND       X46       .00
 BV BND       X47       .00
 BV BND       X48       .00
 BV BND       X49       .00
 BV BND       X50       .00
 BV BND       X51       .00
 BV BND       X52       .00
 BV BND       X53       .00
 BV BND       X54       .00
 BV BND       X55       .00
 BV BND       X56       .00
 BV BND       X57       .00
 BV BND       X58       .00
 BV BND       X59       .00
 BV BND       X60       .00
 BV BND       X61       .00
 BV BND       X62       .00
 BV BND       X63       .00
 BV BND       X64       .00
 BV BND       X65       .00
 BV BND       X66       .00
 BV BND       X67       .00
 BV BND       X68       .00
 BV BND       X69       .00
 BV BND       X70       .00
 BV BND       X71       .00
 BV BND       X72       .00
 BV BND       X73       .00
 BV BND       X74       .00
 BV BND       X75       .00
 BV BND       X76       .00
 BV BND       X77       .00
 BV BND       X78       .00
 BV BND       X79       .00
 BV BND       X80       .00
 BV BND       X81       .00
 BV BND       X82       .00
 BV BND       X83       .00
 BV BND       X84       .00
 BV BND       X85       .00
 BV BND       X86       .00
 BV BND       X87       .00
 BV BND       X88       .00
 BV BND       X89       .00
 BV BND       X90       .00
 BV BND       X91       .00
 BV BND       X92       .00
 BV BND       X93       .00
 BV BND       X94       .00
 BV BND       X95       .00
 BV BND       X96       .00
 BV BND       X97       .00
 BV BND       X98       .00
 BV BND       X99       .00
 BV BND       X100      .00
ENDATA
